15 2 
6129	6129	
883	811	1039	
560	797	1154	
931	434	787	
633	408	486	
960	603	840	
58	648	1251	
838	836	950	
311	630	1020	
438	409	416	
689	362	427	
839	305	466	
920	357	696	
351	442	739	
505	509	814	
951	621	1017	
